StudentsNr = 10;
InstructorsNr = 75;
DaysNr = 2;
SlotsPerDay = 20;
AvailabilitySlotsLenght = 5;
RoomNr = 1;
ProgrammNr = 2;
DegreeNr = 2;
RolesNr = 4;
CoursesNr = 4;
InstructorsProgramm = [{1}, {2}, {1, 2}, {1}, {1}, {1}, {2}, {1}, {2}, {2}, {1, 2}, {2}, {1}, {1}, {2}, {1}, {2}, {2}, {1}, {1, 2}, {1}, {2}, {1}, {1}, {1}, {1, 2}, {1}, {2}, {1}, {1}, {1, 2}, {1}, {1}, {1, 2}, {1, 2}, {2}, {2}, {2}, {1}, {2}, {2}, {1, 2}, {1}, {1}, {1}, {2}, {1}, {1}, {1}, {1, 2}, {1}, {1}, {2}, {1}, {1, 2}, {1}, {2}, {1}, {1, 2}, {1}, {1, 2}, {1}, {2}, {2}, {1}, {2}, {1}, {2}, {2}, {2}, {1}, {1}, {2}, {1, 2}, {2}];
InstructorRolesPerProgramm = [|{1, 4, 5, 6, 8, 19, 24, 25, 31, 32, 33, 43, 45, 48, 49, 54, 58, 67, 71}, {1, 4, 6, 8, 11, 14, 19, 20, 24, 25, 30, 33, 34, 42, 43, 45, 54, 59, 62}, {5, 6, 8, 11, 27, 31, 34, 39, 42, 44, 45, 51, 52, 54, 58, 60, 67, 71, 74}, {4, 11, 16, 23, 30, 33, 34, 43, 45, 47, 48, 52, 56, 60, 61}|{7, 10, 12, 15, 18, 31, 53, 64, 66, 68, 73}, {10, 11, 15, 18, 20, 34, 38, 40, 41, 42, 53, 57, 59, 63, 64, 68}, {7, 9, 11, 15, 22, 31, 34, 37, 38, 42, 57, 64, 68, 74, 75}, {7, 10, 11, 15, 22, 34, 36, 37, 40, 41, 53, 57, 61, 64, 66, 73, 75}|];
InstructorsAvailability = [|0, 0, 1, 1, 1, 1, 1, 1, |0, 1, 1, 1, 0, 0, 0, 0, |0, 0, 1, 1, 1, 1, 1, 1, |0, 1, 0, 1, 1, 1, 1, 1, |0, 1, 1, 1, 1, 1, 1, 1, |0, 1, 0, 1, 1, 1, 1, 1, |0, 1, 1, 1, 0, 1, 1, 1, |1, 0, 1, 1, 0, 0, 0, 0, |0, 0, 1, 1, 1, 1, 1, 1, |0, 1, 1, 1, 1, 1, 1, 1, |0, 1, 1, 1, 0, 1, 1, 0, |1, 1, 1, 1, 1, 1, 1, 1, |1, 1, 1, 1, 1, 1, 1, 1, |0, 1, 1, 1, 1, 1, 1, 1, |1, 0, 1, 0, 1, 0, 0, 0, |0, 0, 1, 1, 1, 1, 1, 1, |1, 1, 1, 1, 0, 1, 1, 1, |0, 1, 0, 1, 1, 1, 1, 1, |0, 0, 1, 1, 0, 1, 1, 1, |1, 1, 1, 1, 1, 1, 1, 1, |0, 1, 1, 1, 1, 1, 1, 1, |0, 1, 1, 0, 0, 1, 1, 1, |0, 0, 0, 0, 0, 1, 0, 0, |1, 1, 1, 1, 1, 1, 0, 1, |0, 0, 1, 1, 1, 1, 1, 1, |0, 1, 1, 1, 1, 1, 1, 0, |1, 1, 1, 1, 1, 1, 1, 1, |1, 1, 1, 1, 1, 1, 1, 1, |1, 1, 1, 0, 1, 1, 1, 1, |0, 1, 1, 1, 1, 1, 1, 1, |0, 0, 1, 1, 1, 1, 1, 1, |0, 1, 1, 1, 1, 1, 1, 0, |1, 1, 1, 1, 1, 1, 1, 0, |1, 1, 0, 1, 0, 1, 1, 1, |0, 1, 1, 1, 1, 1, 1, 1, |0, 1, 1, 0, 1, 1, 1, 1, |0, 0, 1, 1, 1, 1, 1, 0, |0, 1, 1, 1, 1, 1, 1, 1, |1, 1, 1, 1, 0, 1, 1, 1, |1, 1, 0, 1, 1, 1, 1, 1, |0, 1, 1, 1, 1, 1, 1, 0, |1, 1, 1, 0, 1, 1, 1, 0, |0, 1, 1, 1, 1, 1, 1, 1, |1, 1, 1, 1, 1, 1, 1, 1, |1, 1, 0, 0, 1, 1, 1, 1, |0, 1, 1, 1, 1, 1, 1, 1, |0, 1, 1, 1, 1, 1, 1, 1, |0, 1, 1, 1, 0, 0, 1, 0, |1, 1, 1, 1, 1, 1, 1, 1, |1, 1, 0, 1, 0, 1, 1, 1, |1, 1, 1, 1, 1, 1, 1, 1, |0, 1, 1, 1, 1, 1, 1, 0, |1, 0, 0, 1, 1, 1, 1, 0, |0, 0, 1, 1, 1, 1, 0, 1, |0, 0, 1, 1, 1, 0, 0, 0, |1, 1, 1, 1, 1, 1, 1, 1, |1, 0, 1, 1, 1, 1, 1, 1, |1, 1, 1, 1, 1, 1, 1, 1, |0, 1, 1, 1, 1, 0, 0, 0, |1, 1, 1, 1, 1, 0, 1, 0, |1, 1, 1, 1, 1, 1, 1, 1, |0, 0, 0, 1, 1, 1, 1, 1, |0, 0, 0, 1, 0, 0, 0, 1, |0, 1, 1, 1, 1, 0, 1, 1, |1, 1, 1, 1, 1, 1, 1, 1, |1, 1, 1, 1, 1, 1, 1, 1, |1, 1, 0, 0, 1, 1, 0, 0, |1, 1, 1, 1, 1, 1, 1, 1, |0, 0, 1, 1, 1, 1, 1, 1, |0, 1, 1, 1, 1, 1, 1, 1, |0, 0, 1, 1, 1, 1, 1, 1, |1, 1, 1, 1, 1, 0, 0, 1, |1, 1, 1, 1, 1, 1, 1, 1, |1, 1, 1, 1, 1, 1, 1, 1, |1, 1, 1, 0, 1, 1, 1, 1|];
StudentsProgramm = [2, 1, 2, 1, 1, 1, 2, 2, 2, 1];
StudentsDegree = [1, 2, 2, 1, 2, 2, 1, 1, 1, 1];
StudentsSupervisorId = [42, 74, 12, 27, 49, 5, 34, 55, 34, 74];
StudentsCourseIds = [{1, 3, 4}, {1, 2, 3, 4}, {1, 2, 3, 4}, {1, 3, 4}, {1, 2, 3, 4}, {1, 2, 3, 4}, {1, 3, 4}, {1, 2, 4}, {1, 2, 3}, {2, 3, 4}];
StudentsAvailability = [|1, 0, 1, 1, 1, 0, 1, 1, |0, 1, 1, 1, 1, 1, 1, 1, |0, 1, 1, 1, 1, 1, 1, 1, |1, 1, 1, 0, 1, 1, 1, 1, |0, 0, 1, 1, 1, 1, 1, 1, |0, 0, 1, 1, 1, 1, 1, 1, |1, 0, 1, 1, 1, 1, 1, 1, |1, 1, 1, 1, 1, 1, 1, 1, |0, 0, 0, 1, 1, 0, 1, 1, |0, 1, 1, 1, 1, 1, 1, 1|];
TheoryticalMinCard = [0, 0, 0, 0, 0, 0, 0, 0, 0, 0];
CoursesInstructorIds = [{17, 24, 26, 28, 39, 42, 43, 46, 48, 57, 62, 64, 65, 66}, {2, 4, 5, 7, 10, 11, 13, 14, 16, 17, 18, 19, 20, 28, 29, 30, 33, 34, 35, 37, 38, 39, 43, 44, 45, 47, 48, 51, 53, 54, 55, 56, 57, 59, 61, 67, 69}, {2, 4, 5, 6, 8, 9, 10, 11, 13, 14, 15, 18, 19, 22, 23, 24, 25, 26, 27, 28, 30, 32, 34, 35, 36, 37, 38, 39, 40, 41, 43, 46, 47, 50, 51, 52, 57, 59, 60, 62, 63, 65, 67, 68, 69, 71, 72}, {5, 9, 12, 16, 22, 28, 29, 53, 66}];
RolesDemands = [11, 4, 13, 7];
RolesContinuity = [];
ExamLen = [2, 2, 2, 2, 2, 2, 2, 2, 2, 2];
LunchTsMinLen = 2;
LunchStarts = [6..14, 27..34];
SupervisorAvailable = 5;
OptimalLunchLenght = [2, 2];
OptimalStartTs = [1, 1];
OptimalFinishTs = [1, 19];
MinimizeRooms = 100;
RolesSoftContinuity = [|1, 2, 3, 4|2, 4, 3, 2|];
SameDegreeInRoom = 0;
Mergeability = 1;
